% Auto-generated by scripts/generate_dzn.py
% problem_type   = regex
% instance       = regex_67
% source_json    = instances_json/1_medium_blowup/regex_67.json
% blowup         = 3.1363636363636362
% representation = NFA

mode = 1;

var_count = 19;
n_constraints = 2;
Q = 13;
S = 2;
q0 = [1, 1];
F = [{9}, {13}];
weights = [6, 7, 9, 3, 4, 10, 7, 9, 9, 6, 8, 2, 7, 6, 1, 2, 9, 4, 10];
d_dfa = array3d(1..2, 1..13, 1..2, [
  % k = 1
    0, 0,
    0, 0,
    0, 0,
    0, 0,
    0, 0,
    0, 0,
    0, 0,
    0, 0,
    0, 0,
    0, 0,
    0, 0,
    0, 0,
    0, 0,

  % k = 2
    0, 0,
    0, 0,
    0, 0,
    0, 0,
    0, 0,
    0, 0,
    0, 0,
    0, 0,
    0, 0,
    0, 0,
    0, 0,
    0, 0,
    0, 0
]);
d_nfa = array3d(1..2, 1..13, 1..2, [
  % k = 1
    {1}, {1, 2},
    {3}, {},
    {4}, {4},
    {5}, {5},
    {6}, {6},
    {7}, {7},
    {8}, {8},
    {9}, {9},
    {}, {},
    {}, {},
    {}, {},
    {}, {},
    {}, {},

  % k = 2
    {2}, {1},
    {3}, {2},
    {4}, {3},
    {5}, {4},
    {6}, {5},
    {7}, {6},
    {8}, {7},
    {9}, {8},
    {10}, {9},
    {11}, {10},
    {12}, {11},
    {13}, {12},
    {}, {13}
]);
